\ENCODING=ISO-8859-1
\Problem name: TSP

Minimize
 obj1: 257 x1 + 187 x2 + 91 x3 + 150 x4 + 80 x5 + 130 x6 + 134 x7 + 243 x8
       + 185 x9 + 214 x10 + 70 x11 + 272 x12 + 219 x13 + 293 x14 + 54 x15
       + 211 x16 + 290 x17 + 268 x18 + 261 x19 + 175 x20 + 250 x21 + 192 x22
       + 121 x23 + 196 x24 + 228 x25 + 112 x26 + 196 x27 + 167 x28 + 154 x29
       + 209 x30 + 86 x31 + 223 x32 + 191 x33 + 180 x34 + 83 x35 + 50 x36
       + 219 x37 + 74 x38 + 139 x39 + 53 x40 + 43 x41 + 128 x42 + 99 x43
       + 228 x44 + 142 x45 + 158 x46 + 96 x47 + 88 x48 + 59 x49 + 63 x50
       + 286 x51 + 124 x52 + 49 x53 + 121 x54 + 315 x55 + 172 x56 + 232 x57
       + 92 x58 + 81 x59 + 98 x60 + 138 x61 + 200 x62 + 76 x63 + 89 x64
       + 235 x65 + 99 x66 + 120 x67 + 77 x68 + 101 x69 + 105 x70 + 159 x71
       + 156 x72 + 185 x73 + 27 x74 + 188 x75 + 149 x76 + 264 x77 + 82 x78
       + 182 x79 + 261 x80 + 239 x81 + 232 x82 + 146 x83 + 221 x84 + 108 x85
       + 84 x86 + 63 x87 + 56 x88 + 34 x89 + 190 x90 + 40 x91 + 123 x92
       + 83 x93 + 193 x94 + 79 x95 + 148 x96 + 119 x97 + 105 x98 + 144 x99
       + 123 x100 + 98 x101 + 32 x102 + 105 x103 + 119 x104 + 35 x105 + 25 x106
       + 29 x107 + 216 x108 + 124 x109 + 115 x110 + 47 x111 + 245 x112
       + 139 x113 + 232 x114 + 31 x115 + 150 x116 + 176 x117 + 207 x118
       + 200 x119 + 76 x120 + 189 x121 + 165 x122 + 29 x123 + 22 x124
       + 229 x125 + 95 x126 + 86 x127 + 64 x128 + 258 x129 + 134 x130
       + 203 x131 + 43 x132 + 121 x133 + 164 x134 + 178 x135 + 171 x136
       + 47 x137 + 160 x138 + 178 x139 + 42 x140 + 225 x141 + 82 x142 + 90 x143
       + 68 x144 + 228 x145 + 112 x146 + 190 x147 + 58 x148 + 108 x149
       + 136 x150 + 165 x151 + 131 x152 + 30 x153 + 147 x154 + 154 x155
       + 36 x156 + 207 x157 + 313 x158 + 173 x159 + 29 x160 + 126 x161
       + 248 x162 + 238 x163 + 310 x164 + 389 x165 + 367 x166 + 166 x167
       + 222 x168 + 349 x169 + 71 x170 + 220 x171 + 151 x172 + 119 x173
       + 159 x174 + 62 x175 + 122 x176 + 147 x177 + 37 x178 + 116 x179
       + 86 x180 + 90 x181 + 56 x182 + 76 x183 + 136 x184 + 70 x185 + 148 x186
       + 342 x187 + 199 x188 + 259 x189 + 84 x190 + 160 x191 + 147 x192
       + 187 x193 + 227 x194 + 103 x195 + 138 x196 + 262 x197 + 126 x198
       + 209 x199 + 153 x200 + 227 x201 + 53 x202 + 145 x203 + 224 x204
       + 202 x205 + 195 x206 + 109 x207 + 184 x208 + 110 x209 + 55 x210
       + 97 x211 + 219 x212 + 267 x213 + 196 x214 + 275 x215 + 227 x216
       + 137 x217 + 225 x218 + 235 x219 + 74 x220 + 249 x221 + 134 x222
       + 170 x223 + 99 x224 + 178 x225 + 130 x226 + 69 x227 + 104 x228
       + 138 x229 + 96 x230 + 104 x231 + 255 x232 + 125 x233 + 154 x234
       + 68 x235 + 82 x236 + 164 x237 + 114 x238 + 264 x239 + 178 x240
       + 173 x241 + 190 x242 + 230 x243 + 223 x244 + 99 x245 + 212 x246
       + 187 x247 + 60 x248 + 79 x249 + 57 x250 + 90 x251 + 57 x252 + 39 x253
       + 182 x254 + 96 x255 + 86 x256 + 176 x257 + 112 x258 + 40 x259
       + 261 x260 + 175 x261 + 90 x262 + 114 x263 + 46 x264 + 239 x265
       + 153 x266 + 134 x267 + 136 x268 + 165 x269 + 146 x270 + 96 x271
       + 151 x272 + 47 x273 + 221 x274 + 135 x275 + 169 x276
Subject To
 c1:  x1 + x2 + x3 + x4 + x5 + x6 + x7 + x8 + x9 + x10 + x11 + x12 + x13 + x14
      + x15 + x16 + x17 + x18 + x19 + x20 + x21 + x22 + x23  = 2
 c2:  x1 + x24 + x25 + x26 + x27 + x28 + x29 + x30 + x31 + x32 + x33 + x34
      + x35 + x36 + x37 + x38 + x39 + x40 + x41 + x42 + x43 + x44 + x45  = 2
 c3:  x2 + x24 + x46 + x47 + x48 + x49 + x50 + x51 + x52 + x53 + x54 + x55
      + x56 + x57 + x58 + x59 + x60 + x61 + x62 + x63 + x64 + x65 + x66  = 2
 c4:  x3 + x25 + x46 + x67 + x68 + x69 + x70 + x71 + x72 + x73 + x74 + x75
      + x76 + x77 + x78 + x79 + x80 + x81 + x82 + x83 + x84 + x85 + x86  = 2
 c5:  x4 + x26 + x47 + x67 + x87 + x88 + x89 + x90 + x91 + x92 + x93 + x94
      + x95 + x96 + x97 + x98 + x99 + x100 + x101 + x102 + x103 + x104 + x105
       = 2
 c6:  x5 + x27 + x48 + x68 + x87 + x106 + x107 + x108 + x109 + x110 + x111
      + x112 + x113 + x114 + x115 + x116 + x117 + x118 + x119 + x120 + x121
      + x122 + x123  = 2
 c7:  x6 + x28 + x49 + x69 + x88 + x106 + x124 + x125 + x126 + x127 + x128
      + x129 + x130 + x131 + x132 + x133 + x134 + x135 + x136 + x137 + x138
      + x139 + x140  = 2
 c8:  x7 + x29 + x50 + x70 + x89 + x107 + x124 + x141 + x142 + x143 + x144
      + x145 + x146 + x147 + x148 + x149 + x150 + x151 + x152 + x153 + x154
      + x155 + x156  = 2
 c9:  x8 + x30 + x51 + x71 + x90 + x108 + x125 + x141 + x157 + x158 + x159
      + x160 + x161 + x162 + x163 + x164 + x165 + x166 + x167 + x168 + x169
      + x170 + x171  = 2
 c10: x9 + x31 + x52 + x72 + x91 + x109 + x126 + x142 + x157 + x172 + x173
      + x174 + x175 + x176 + x177 + x178 + x179 + x180 + x181 + x182 + x183
      + x184 + x185  = 2
 c11: x10 + x32 + x53 + x73 + x92 + x110 + x127 + x143 + x158 + x172 + x186
      + x187 + x188 + x189 + x190 + x191 + x192 + x193 + x194 + x195 + x196
      + x197 + x198  = 2
 c12: x11 + x33 + x54 + x74 + x93 + x111 + x128 + x144 + x159 + x173 + x186
      + x199 + x200 + x201 + x202 + x203 + x204 + x205 + x206 + x207 + x208
      + x209 + x210  = 2
 c13: x12 + x34 + x55 + x75 + x94 + x112 + x129 + x145 + x160 + x174 + x187
      + x199 + x211 + x212 + x213 + x214 + x215 + x216 + x217 + x218 + x219
      + x220 + x221  = 2
 c14: x13 + x35 + x56 + x76 + x95 + x113 + x130 + x146 + x161 + x175 + x188
      + x200 + x211 + x222 + x223 + x224 + x225 + x226 + x227 + x228 + x229
      + x230 + x231  = 2
 c15: x14 + x36 + x57 + x77 + x96 + x114 + x131 + x147 + x162 + x176 + x189
      + x201 + x212 + x222 + x232 + x233 + x234 + x235 + x236 + x237 + x238
      + x239 + x240  = 2
 c16: x15 + x37 + x58 + x78 + x97 + x115 + x132 + x148 + x163 + x177 + x190
      + x202 + x213 + x223 + x232 + x241 + x242 + x243 + x244 + x245 + x246
      + x247 + x248  = 2
 c17: x16 + x38 + x59 + x79 + x98 + x116 + x133 + x149 + x164 + x178 + x191
      + x203 + x214 + x224 + x233 + x241 + x249 + x250 + x251 + x252 + x253
      + x254 + x255  = 2
 c18: x17 + x39 + x60 + x80 + x99 + x117 + x134 + x150 + x165 + x179 + x192
      + x204 + x215 + x225 + x234 + x242 + x249 + x256 + x257 + x258 + x259
      + x260 + x261  = 2
 c19: x18 + x40 + x61 + x81 + x100 + x118 + x135 + x151 + x166 + x180 + x193
      + x205 + x216 + x226 + x235 + x243 + x250 + x256 + x262 + x263 + x264
      + x265 + x266  = 2
 c20: x19 + x41 + x62 + x82 + x101 + x119 + x136 + x152 + x167 + x181 + x194
      + x206 + x217 + x227 + x236 + x244 + x251 + x257 + x262 + x267 + x268
      + x269 + x270  = 2
 c21: x20 + x42 + x63 + x83 + x102 + x120 + x137 + x153 + x168 + x182 + x195
      + x207 + x218 + x228 + x237 + x245 + x252 + x258 + x263 + x267 + x271
      + x272 + x273  = 2
 c22: x21 + x43 + x64 + x84 + x103 + x121 + x138 + x154 + x169 + x183 + x196
      + x208 + x219 + x229 + x238 + x246 + x253 + x259 + x264 + x268 + x271
      + x274 + x275  = 2
 c23: x22 + x44 + x65 + x85 + x104 + x122 + x139 + x155 + x170 + x184 + x197
      + x209 + x220 + x230 + x239 + x247 + x254 + x260 + x265 + x269 + x272
      + x274 + x276  = 2
 c24: x23 + x45 + x66 + x86 + x105 + x123 + x140 + x156 + x171 + x185 + x198
      + x210 + x221 + x231 + x240 + x248 + x255 + x261 + x266 + x270 + x273
      + x275 + x276  = 2
Bounds
 0 <= x1 <= 1
 0 <= x2 <= 1
 0 <= x3 <= 1
 0 <= x4 <= 1
 0 <= x5 <= 1
 0 <= x6 <= 1
 0 <= x7 <= 1
 0 <= x8 <= 1
 0 <= x9 <= 1
 0 <= x10 <= 1
 0 <= x11 <= 1
 0 <= x12 <= 1
 0 <= x13 <= 1
 0 <= x14 <= 1
 0 <= x15 <= 1
 0 <= x16 <= 1
 0 <= x17 <= 1
 0 <= x18 <= 1
 0 <= x19 <= 1
 0 <= x20 <= 1
 0 <= x21 <= 1
 0 <= x22 <= 1
 0 <= x23 <= 1
 0 <= x24 <= 1
 0 <= x25 <= 1
 0 <= x26 <= 1
 0 <= x27 <= 1
 0 <= x28 <= 1
 0 <= x29 <= 1
 0 <= x30 <= 1
 0 <= x31 <= 1
 0 <= x32 <= 1
 0 <= x33 <= 1
 0 <= x34 <= 1
 0 <= x35 <= 1
 0 <= x36 <= 1
 0 <= x37 <= 1
 0 <= x38 <= 1
 0 <= x39 <= 1
 0 <= x40 <= 1
 0 <= x41 <= 1
 0 <= x42 <= 1
 0 <= x43 <= 1
 0 <= x44 <= 1
 0 <= x45 <= 1
 0 <= x46 <= 1
 0 <= x47 <= 1
 0 <= x48 <= 1
 0 <= x49 <= 1
 0 <= x50 <= 1
 0 <= x51 <= 1
 0 <= x52 <= 1
 0 <= x53 <= 1
 0 <= x54 <= 1
 0 <= x55 <= 1
 0 <= x56 <= 1
 0 <= x57 <= 1
 0 <= x58 <= 1
 0 <= x59 <= 1
 0 <= x60 <= 1
 0 <= x61 <= 1
 0 <= x62 <= 1
 0 <= x63 <= 1
 0 <= x64 <= 1
 0 <= x65 <= 1
 0 <= x66 <= 1
 0 <= x67 <= 1
 0 <= x68 <= 1
 0 <= x69 <= 1
 0 <= x70 <= 1
 0 <= x71 <= 1
 0 <= x72 <= 1
 0 <= x73 <= 1
 0 <= x74 <= 1
 0 <= x75 <= 1
 0 <= x76 <= 1
 0 <= x77 <= 1
 0 <= x78 <= 1
 0 <= x79 <= 1
 0 <= x80 <= 1
 0 <= x81 <= 1
 0 <= x82 <= 1
 0 <= x83 <= 1
 0 <= x84 <= 1
 0 <= x85 <= 1
 0 <= x86 <= 1
 0 <= x87 <= 1
 0 <= x88 <= 1
 0 <= x89 <= 1
 0 <= x90 <= 1
 0 <= x91 <= 1
 0 <= x92 <= 1
 0 <= x93 <= 1
 0 <= x94 <= 1
 0 <= x95 <= 1
 0 <= x96 <= 1
 0 <= x97 <= 1
 0 <= x98 <= 1
 0 <= x99 <= 1
 0 <= x100 <= 1
 0 <= x101 <= 1
 0 <= x102 <= 1
 0 <= x103 <= 1
 0 <= x104 <= 1
 0 <= x105 <= 1
 0 <= x106 <= 1
 0 <= x107 <= 1
 0 <= x108 <= 1
 0 <= x109 <= 1
 0 <= x110 <= 1
 0 <= x111 <= 1
 0 <= x112 <= 1
 0 <= x113 <= 1
 0 <= x114 <= 1
 0 <= x115 <= 1
 0 <= x116 <= 1
 0 <= x117 <= 1
 0 <= x118 <= 1
 0 <= x119 <= 1
 0 <= x120 <= 1
 0 <= x121 <= 1
 0 <= x122 <= 1
 0 <= x123 <= 1
 0 <= x124 <= 1
 0 <= x125 <= 1
 0 <= x126 <= 1
 0 <= x127 <= 1
 0 <= x128 <= 1
 0 <= x129 <= 1
 0 <= x130 <= 1
 0 <= x131 <= 1
 0 <= x132 <= 1
 0 <= x133 <= 1
 0 <= x134 <= 1
 0 <= x135 <= 1
 0 <= x136 <= 1
 0 <= x137 <= 1
 0 <= x138 <= 1
 0 <= x139 <= 1
 0 <= x140 <= 1
 0 <= x141 <= 1
 0 <= x142 <= 1
 0 <= x143 <= 1
 0 <= x144 <= 1
 0 <= x145 <= 1
 0 <= x146 <= 1
 0 <= x147 <= 1
 0 <= x148 <= 1
 0 <= x149 <= 1
 0 <= x150 <= 1
 0 <= x151 <= 1
 0 <= x152 <= 1
 0 <= x153 <= 1
 0 <= x154 <= 1
 0 <= x155 <= 1
 0 <= x156 <= 1
 0 <= x157 <= 1
 0 <= x158 <= 1
 0 <= x159 <= 1
 0 <= x160 <= 1
 0 <= x161 <= 1
 0 <= x162 <= 1
 0 <= x163 <= 1
 0 <= x164 <= 1
 0 <= x165 <= 1
 0 <= x166 <= 1
 0 <= x167 <= 1
 0 <= x168 <= 1
 0 <= x169 <= 1
 0 <= x170 <= 1
 0 <= x171 <= 1
 0 <= x172 <= 1
 0 <= x173 <= 1
 0 <= x174 <= 1
 0 <= x175 <= 1
 0 <= x176 <= 1
 0 <= x177 <= 1
 0 <= x178 <= 1
 0 <= x179 <= 1
 0 <= x180 <= 1
 0 <= x181 <= 1
 0 <= x182 <= 1
 0 <= x183 <= 1
 0 <= x184 <= 1
 0 <= x185 <= 1
 0 <= x186 <= 1
 0 <= x187 <= 1
 0 <= x188 <= 1
 0 <= x189 <= 1
 0 <= x190 <= 1
 0 <= x191 <= 1
 0 <= x192 <= 1
 0 <= x193 <= 1
 0 <= x194 <= 1
 0 <= x195 <= 1
 0 <= x196 <= 1
 0 <= x197 <= 1
 0 <= x198 <= 1
 0 <= x199 <= 1
 0 <= x200 <= 1
 0 <= x201 <= 1
 0 <= x202 <= 1
 0 <= x203 <= 1
 0 <= x204 <= 1
 0 <= x205 <= 1
 0 <= x206 <= 1
 0 <= x207 <= 1
 0 <= x208 <= 1
 0 <= x209 <= 1
 0 <= x210 <= 1
 0 <= x211 <= 1
 0 <= x212 <= 1
 0 <= x213 <= 1
 0 <= x214 <= 1
 0 <= x215 <= 1
 0 <= x216 <= 1
 0 <= x217 <= 1
 0 <= x218 <= 1
 0 <= x219 <= 1
 0 <= x220 <= 1
 0 <= x221 <= 1
 0 <= x222 <= 1
 0 <= x223 <= 1
 0 <= x224 <= 1
 0 <= x225 <= 1
 0 <= x226 <= 1
 0 <= x227 <= 1
 0 <= x228 <= 1
 0 <= x229 <= 1
 0 <= x230 <= 1
 0 <= x231 <= 1
 0 <= x232 <= 1
 0 <= x233 <= 1
 0 <= x234 <= 1
 0 <= x235 <= 1
 0 <= x236 <= 1
 0 <= x237 <= 1
 0 <= x238 <= 1
 0 <= x239 <= 1
 0 <= x240 <= 1
 0 <= x241 <= 1
 0 <= x242 <= 1
 0 <= x243 <= 1
 0 <= x244 <= 1
 0 <= x245 <= 1
 0 <= x246 <= 1
 0 <= x247 <= 1
 0 <= x248 <= 1
 0 <= x249 <= 1
 0 <= x250 <= 1
 0 <= x251 <= 1
 0 <= x252 <= 1
 0 <= x253 <= 1
 0 <= x254 <= 1
 0 <= x255 <= 1
 0 <= x256 <= 1
 0 <= x257 <= 1
 0 <= x258 <= 1
 0 <= x259 <= 1
 0 <= x260 <= 1
 0 <= x261 <= 1
 0 <= x262 <= 1
 0 <= x263 <= 1
 0 <= x264 <= 1
 0 <= x265 <= 1
 0 <= x266 <= 1
 0 <= x267 <= 1
 0 <= x268 <= 1
 0 <= x269 <= 1
 0 <= x270 <= 1
 0 <= x271 <= 1
 0 <= x272 <= 1
 0 <= x273 <= 1
 0 <= x274 <= 1
 0 <= x275 <= 1
 0 <= x276 <= 1
Binaries
 x1  x2  x3  x4  x5  x6  x7  x8  x9  x10  x11  x12  x13  x14  x15  x16  x17 
 x18  x19  x20  x21  x22  x23  x24  x25  x26  x27  x28  x29  x30  x31  x32 
 x33  x34  x35  x36  x37  x38  x39  x40  x41  x42  x43  x44  x45  x46  x47 
 x48  x49  x50  x51  x52  x53  x54  x55  x56  x57  x58  x59  x60  x61  x62 
 x63  x64  x65  x66  x67  x68  x69  x70  x71  x72  x73  x74  x75  x76  x77 
 x78  x79  x80  x81  x82  x83  x84  x85  x86  x87  x88  x89  x90  x91  x92 
 x93  x94  x95  x96  x97  x98  x99  x100  x101  x102  x103  x104  x105  x106 
 x107  x108  x109  x110  x111  x112  x113  x114  x115  x116  x117  x118  x119 
 x120  x121  x122  x123  x124  x125  x126  x127  x128  x129  x130  x131  x132 
 x133  x134  x135  x136  x137  x138  x139  x140  x141  x142  x143  x144  x145 
 x146  x147  x148  x149  x150  x151  x152  x153  x154  x155  x156  x157  x158 
 x159  x160  x161  x162  x163  x164  x165  x166  x167  x168  x169  x170  x171 
 x172  x173  x174  x175  x176  x177  x178  x179  x180  x181  x182  x183  x184 
 x185  x186  x187  x188  x189  x190  x191  x192  x193  x194  x195  x196  x197 
 x198  x199  x200  x201  x202  x203  x204  x205  x206  x207  x208  x209  x210 
 x211  x212  x213  x214  x215  x216  x217  x218  x219  x220  x221  x222  x223 
 x224  x225  x226  x227  x228  x229  x230  x231  x232  x233  x234  x235  x236 
 x237  x238  x239  x240  x241  x242  x243  x244  x245  x246  x247  x248  x249 
 x250  x251  x252  x253  x254  x255  x256  x257  x258  x259  x260  x261  x262 
 x263  x264  x265  x266  x267  x268  x269  x270  x271  x272  x273  x274  x275 
 x276 
End
